data/mip_solutions/furman_sahinidis/reduced_transportation/7sp1_cplex.sol
Elapsed time: 0.226141214371
Nodes explored: 0
Upper bound: 7.0
Lower bound: 7.0
y[0,0]=1
y[0,1]=1
y[0,2]=1
y[1,0]=1
y[1,3]=1
y[2,1]=1
y[2,4]=1
q[0,1,0,1]=114.4
q[0,1,2,1]=527.0
q[0,1,2,3]=758.6
q[0,2,2,2]=790.5
q[0,2,2,3]=49.5
q[0,3,1,3]=1055.6
q[0,3,2,3]=3144.4
q[0,4,1,4]=560.0
q[0,5,0,5]=1120.0
q[1,0,0,1]=685.6
q[1,0,0,2]=246.0
q[1,0,0,3]=972.0
q[1,0,3,2]=0.4
q[1,1,3,1]=595.2
q[1,1,3,2]=594.8
q[1,2,0,2]=234.0
q[1,2,0,4]=320.0
q[1,2,0,5]=160.0
q[1,3,0,3]=1428.0
q[2,2,1,3]=1008.0
q[2,3,1,3]=2850.4
q[2,3,4,5]=2189.6
q[2,4,1,4]=95.2
q[2,4,4,5]=576.8
q[2,5,4,5]=1344.0
